\ENCODING=ISO-8859-1
\Problem name: subtour

Minimize
 obj: 59 x1 + 73 x2 + 55 x3 + 33 x4 + 53 x5 + 64 x6 + 80 x7 + 81 x8 + 36 x9
      + 19 x10 + 9 x11 + 43 x12 + 22 x13 + 5 x14 + 22 x15 + 52 x16 + 47 x17
      + 19 x18 + 49 x19 + 23 x20 + 16 x21 + 12 x22 + 39 x23 + 52 x24 + 35 x25
      + 14 x26 + 12 x27 + 26 x28 + 46 x29 + 39 x30 + 26 x31 + 47 x32 + 59 x33
      + 48 x34 + 6 x35 + 25 x36 + 33 x37 + 34 x38 + 29 x39 + 17 x40 + 52 x41
      + 51 x42 + 49 x43 + 62 x44 + 46 x45
Subject To
 c1:  x1 + x2 + x3 + x4 + x5 + x6 + x7 + x8 + x9  = 2
 c2:  x1 + x10 + x11 + x12 + x13 + x14 + x15 + x16 + x17  = 2
 c3:  x2 + x10 + x18 + x19 + x20 + x21 + x22 + x23 + x24  = 2
 c4:  x3 + x11 + x18 + x25 + x26 + x27 + x28 + x29 + x30  = 2
 c5:  x4 + x12 + x19 + x25 + x31 + x32 + x33 + x34 + x35  = 2
 c6:  x5 + x13 + x20 + x26 + x31 + x36 + x37 + x38 + x39  = 2
 c7:  x6 + x14 + x21 + x27 + x32 + x36 + x40 + x41 + x42  = 2
 c8:  x7 + x15 + x22 + x28 + x33 + x37 + x40 + x43 + x44  = 2
 c9:  x8 + x16 + x23 + x29 + x34 + x38 + x41 + x43 + x45  = 2
 c10: x9 + x17 + x24 + x30 + x35 + x39 + x42 + x44 + x45  = 2
Bounds
 0 <= x1 <= 1
 0 <= x2 <= 1
 0 <= x3 <= 1
 0 <= x4 <= 1
 0 <= x5 <= 1
 0 <= x6 <= 1
 0 <= x7 <= 1
 0 <= x8 <= 1
 0 <= x9 <= 1
 0 <= x10 <= 1
 0 <= x11 <= 1
 0 <= x12 <= 1
 0 <= x13 <= 1
 0 <= x14 <= 1
 0 <= x15 <= 1
 0 <= x16 <= 1
 0 <= x17 <= 1
 0 <= x18 <= 1
 0 <= x19 <= 1
 0 <= x20 <= 1
 0 <= x21 <= 1
 0 <= x22 <= 1
 0 <= x23 <= 1
 0 <= x24 <= 1
 0 <= x25 <= 1
 0 <= x26 <= 1
 0 <= x27 <= 1
 0 <= x28 <= 1
 0 <= x29 <= 1
 0 <= x30 <= 1
 0 <= x31 <= 1
 0 <= x32 <= 1
 0 <= x33 <= 1
 0 <= x34 <= 1
 0 <= x35 <= 1
 0 <= x36 <= 1
 0 <= x37 <= 1
 0 <= x38 <= 1
 0 <= x39 <= 1
 0 <= x40 <= 1
 0 <= x41 <= 1
 0 <= x42 <= 1
 0 <= x43 <= 1
 0 <= x44 <= 1
 0 <= x45 <= 1
End
